50
2311

508 678
253 249
633 861
403 610
11 998
226 995
265 947
941 579
362 435
834 431
917 758
252 481
789 75
459 910
679 385
536 307
390 131
161 598
704 542
782 406
548 458
615 274
984 849
785 995
415 379
306 234
142 675
972 371
864 118
473 264
700 68
229 592
679 537
651 673
957 730
577 440
420 52
612 524
110 806
418 212
342 438
416 686
468 78
798 453
625 947
31 585
52 829
108 39
564 662
460 740
